# Objective value = 1.9157479224757071e+03
x[0] 0
x[1] 1
x[2] 0
x[3] 0
x[4] 1
x[5] 0
x[6] 0
x[7] 0
x[8] 1
x[9] 1
x[10] 0
x[11] 1
x[12] 1
x[13] 0
x[14] 1
x[15] 1
x[16] 1
x[17] 0
x[18] 0
x[19] 1
x[20] 1
x[21] 0
x[22] 1
x[23] 1
x[24] 1
x[25] 0
x[26] 1
x[27] 1
x[28] 0
x[29] 1
x[30] 0
x[31] 1
x[32] 1
x[33] 0
x[34] 1
x[35] 1
x[36] 0
x[37] 0
x[38] 0
x[39] 0
x[40] 0
x[41] 1
x[42] 0
x[43] 0
x[44] 1
x[45] 1
x[46] 1
x[47] 1
x[48] 0
x[49] 1
x[50] 1
x[51] 1
x[52] 0
x[53] 1
x[54] 0
x[55] 1
x[56] 1
x[57] 1
x[58] 0
x[59] 0
x[60] 1
x[61] 0
x[62] 0
x[63] 0
x[64] 0
x[65] 1
x[66] 1
x[67] 0
x[68] 1
x[69] 1
x[70] 1
x[71] 1
x[72] 0
x[73] 0
x[74] 0
x[75] 1
x[76] 0
x[77] 0
x[78] 1
x[79] 0
x[80] 1
x[81] 1
x[82] 1
x[83] 1
x[84] 1
x[85] 0
x[86] 1
x[87] 0
x[88] 1
x[89] 1
x[90] 1
x[91] 1
x[92] 0
x[93] 1
x[94] 1
x[95] 0
x[96] 0
x[97] 0
x[98] 0
x[99] 1
x[100] 0
x[101] 0
x[102] 0
x[103] 1
x[104] 0
x[105] 1
x[106] 1
x[107] 0
x[108] 0
x[109] 1
x[110] 0
x[111] 1
x[112] 0
x[113] 0
x[114] 1
x[115] 1
x[116] 1
x[117] 0
x[118] 1
x[119] 1
x[120] 1
x[121] 0
x[122] 1
x[123] 1
x[124] 1
x[125] 0
x[126] 0
x[127] 0
x[128] 1
x[129] 1
x[130] 1
x[131] 1
x[132] 1
x[133] 0
x[134] 0
x[135] 0
x[136] 0
x[137] 0
x[138] 1
x[139] 1
x[140] 0
x[141] 1
x[142] 1
x[143] 0
x[144] 1
x[145] 0
x[146] 0
x[147] 0
x[148] 1
x[149] 0
x[150] 0
x[151] 1
x[152] 0
x[153] 1
x[154] 1
x[155] 1
x[156] 1
x[157] 1
x[158] 0
x[159] 1
x[160] 1
x[161] 1
x[162] 0
x[163] 0
x[164] 1
x[165] 1
x[166] 0
x[167] 1
x[168] 0
x[169] 0
x[170] 1
x[171] 1
x[172] 0
x[173] 1
x[174] 1
x[175] 0
x[176] 1
x[177] 1
x[178] 0
x[179] 0
x[180] 0
x[181] 1
x[182] 0
x[183] 0
x[184] 1
x[185] 1
x[186] 1
x[187] 0
x[188] 1
x[189] 0
x[190] 1
x[191] 1
x[192] 0
x[193] 0
x[194] 0
x[195] 1
x[196] 0
x[197] 0
x[198] 1
x[199] 1
x[200] 0
x[201] 0
x[202] 1
x[203] 0
x[204] 1
x[205] 0
x[206] 1
x[207] 1
x[208] 1
x[209] 0
x[210] 0
x[211] 0
x[212] 1
x[213] 1
x[214] 1
x[215] 1
x[216] 1
x[217] 1
x[218] 0
x[219] 0
x[220] 0
x[221] 1
x[222] 1
x[223] 1
x[224] 1
x[225] 1
x[226] 0
x[227] 1
x[228] 1
x[229] 0
x[230] 1
x[231] 0
x[232] 0
x[233] 0
x[234] 1
x[235] 1
x[236] 1
x[237] 1
x[238] 1
x[239] 1
x[240] 1
x[241] 1
x[242] 0
x[243] 1
x[244] 1
x[245] 1
x[246] 1
x[247] 0
x[248] 1
x[249] 1
x[250] 0
x[251] 1
x[252] 0
x[253] 1
x[254] 0
x[255] 1
x[256] 0
x[257] 1
x[258] 0
x[259] 1
x[260] 1
x[261] 1
x[262] 1
x[263] 0
x[264] 1
x[265] 1
x[266] 1
x[267] 1
x[268] 0
x[269] 0
x[270] 1
x[271] 1
x[272] 1
x[273] 0
x[274] 0
x[275] 1
x[276] 1
x[277] 1
x[278] 1
x[279] 1
x[280] 1
x[281] 0
x[282] 1
x[283] 1
x[284] 1
x[285] 1
x[286] 1
x[287] 0
x[288] 1
x[289] 1
x[290] 0
x[291] 1
x[292] 0
x[293] 1
x[294] 1
x[295] 1
x[296] 1
x[297] 1
x[298] 0
x[299] 1
x[300] 1
x[301] 1
x[302] 0
x[303] 0
x[304] 0
x[305] 1
x[306] 0
x[307] 0
x[308] 0
x[309] 1
x[310] 1
x[311] 0
x[312] 0
x[313] 0
x[314] 1
x[315] 0
x[316] 1
x[317] 0
x[318] 0
x[319] 0
x[320] 0
x[321] 0
x[322] 1
x[323] 0
x[324] 0
x[325] 0
x[326] 1
x[327] 1
x[328] 1
x[329] 0
x[330] 0
x[331] 1
x[332] 0
x[333] 0
x[334] 1
x[335] 1
x[336] 0
x[337] 0
x[338] 0
x[339] 0
x[340] 1
x[341] 1
x[342] 0
x[343] 0
x[344] 0
x[345] 1
x[346] 1
x[347] 0
x[348] 0
x[349] 1
x[350] 0
x[351] 0
x[352] 1
x[353] 1
x[354] 0
x[355] 0
x[356] 1
x[357] 1
x[358] 1
x[359] 1
x[360] 0
x[361] 1
x[362] 1
x[363] 1
x[364] 1
x[365] 0
x[366] 1
x[367] 1
x[368] 1
x[369] 1
x[370] 1
x[371] 0
x[372] 0
x[373] 0
x[374] 0
x[375] 1
x[376] 1
x[377] 0
x[378] 1
x[379] 0
x[380] 1
x[381] 1
x[382] 1
x[383] 1
x[384] 1
x[385] 1
x[386] 1
x[387] 0
x[388] 1
x[389] 0
x[390] 0
x[391] 1
x[392] 1
x[393] 1
x[394] 1
x[395] 0
x[396] 1
x[397] 0
x[398] 1
x[399] 0
x[400] 1
x[401] 0
x[402] 1
x[403] 0
x[404] 1
x[405] 0
x[406] 0
x[407] 0
x[408] 0
x[409] 1
x[410] 1
x[411] 1
x[412] 0
x[413] 1
x[414] 1
x[415] 1
x[416] 0
x[417] 0
x[418] 1
x[419] 1
x[420] 1
x[421] 1
x[422] 1
x[423] 1
x[424] 0
x[425] 0
x[426] 0
x[427] 1
x[428] 1
x[429] 1
x[430] 1
x[431] 0
x[432] 1
x[433] 1
x[434] 0
x[435] 1
x[436] 0
x[437] 1
x[438] 1
x[439] 1
x[440] 0
x[441] 0
x[442] 1
x[443] 0
x[444] 0
x[445] 1
x[446] 1
x[447] 1
x[448] 0
x[449] 1
x[450] 0
x[451] 1
x[452] 0
x[453] 0
x[454] 1
x[455] 1
x[456] 1
x[457] 1
x[458] 0
x[459] 1
x[460] 1
x[461] 0
x[462] 0
x[463] 0
x[464] 0
x[465] 1
x[466] 1
x[467] 1
x[468] 1
x[469] 1
x[470] 1
x[471] 0
x[472] 0
x[473] 0
x[474] 0
x[475] 0
x[476] 1
x[477] 0
x[478] 0
x[479] 0
x[480] 0
x[481] 1
x[482] 1
x[483] 1
x[484] 0
x[485] 1
x[486] 0
x[487] 1
x[488] 1
x[489] 0
x[490] 0
x[491] 1
x[492] 1
x[493] 0
x[494] 1
x[495] 0
x[496] 1
x[497] 1
x[498] 1
x[499] 0
x[500] 1
x[501] 1
x[502] 0
x[503] 0
x[504] 1
x[505] 0
x[506] 0
x[507] 0
x[508] 1
x[509] 1
x[510] 0
x[511] 1
x[512] 0
x[513] 0
x[514] 0
x[515] 1
x[516] 0
x[517] 0
x[518] 1
x[519] 0
x[520] 1
x[521] 1
x[522] 1
x[523] 0
x[524] 0
x[525] 0
x[526] 1
x[527] 1
x[528] 1
x[529] 1
x[530] 1
x[531] 0
x[532] 1
x[533] 1
x[534] 1
x[535] 1
x[536] 1
x[537] 0
x[538] 0
x[539] 0
x[540] 0
x[541] 0
x[542] 0
x[543] 0
x[544] 1
x[545] 1
x[546] 1
x[547] 1
x[548] 1
x[549] 1
x[550] 0
x[551] 0
x[552] 1
x[553] 1
x[554] 1
x[555] 0
x[556] 1
x[557] 0
x[558] 0
x[559] 1
x[560] 0
x[561] 0
x[562] 0
x[563] 0
x[564] 0
x[565] 1
x[566] 0
x[567] 0
x[568] 1
x[569] 0
x[570] 1
x[571] 1
x[572] 1
x[573] 1
x[574] 1
x[575] 1
x[576] 1
x[577] 0
x[578] 1
x[579] 1
x[580] 0
x[581] 1
x[582] 0
x[583] 0
x[584] 1
x[585] 0
x[586] 0
x[587] 1
x[588] 1
x[589] 0
x[590] 1
x[591] 0
x[592] 1
x[593] 1
x[594] 1
x[595] 1
x[596] 1
x[597] 1
x[598] 1
x[599] 1
x[600] 0
x[601] 1
x[602] 1
x[603] 1
x[604] 1
x[605] 1
x[606] 1
x[607] 1
x[608] 1
x[609] 1
x[610] 1
x[611] 0
x[612] 0
x[613] 1
x[614] 1
x[615] 0
x[616] 1
x[617] 1
x[618] 0
x[619] 1
x[620] 1
x[621] 0
x[622] 1
x[623] 0
x[624] 0
x[625] 1
x[626] 0
x[627] 1
x[628] 0
x[629] 1
x[630] 0
x[631] 1
x[632] 0
x[633] 1
x[634] 1
x[635] 0
x[636] 0
x[637] 0
x[638] 0
x[639] 0
x[640] 1
x[641] 1
x[642] 1
x[643] 1
x[644] 0
x[645] 1
x[646] 0
x[647] 1
x[648] 0
x[649] 0
x[650] 0
x[651] 0
x[652] 1
x[653] 1
x[654] 0
x[655] 0
x[656] 1
x[657] 1
x[658] 0
x[659] 0
x[660] 0
x[661] 0
x[662] 0
x[663] 1
x[664] 1
x[665] 0
x[666] 0
x[667] 0
x[668] 0
x[669] 1
x[670] 0
x[671] 1
x[672] 1
x[673] 0
x[674] 0
x[675] 0
x[676] 0
x[677] 1
x[678] 0
x[679] 0
x[680] 1
x[681] 0
x[682] 0
x[683] 1
x[684] 1
x[685] 0
x[686] 1
x[687] 0
x[688] 1
x[689] 0
x[690] 0
x[691] 0
x[692] 0
x[693] 1
x[694] 1
x[695] 1
x[696] 1
x[697] 1
x[698] 1
x[699] 0
x[700] 1
x[701] 1
x[702] 0
x[703] 1
x[704] 1
x[705] 1
x[706] 1
x[707] 0
x[708] 1
x[709] 1
x[710] 0
x[711] 0
x[712] 1
x[713] 1
x[714] 0
x[715] 0
x[716] 1
x[717] 1
x[718] 0
x[719] 1
x[720] 0
x[721] 1
x[722] 1
x[723] 0
x[724] 1
x[725] 1
x[726] 0
x[727] 1
x[728] 1
x[729] 0
x[730] 1
x[731] 0
x[732] 0
x[733] 0
x[734] 0
x[735] 1
x[736] 1
x[737] 1
x[738] 1
x[739] 1
x[740] 1
x[741] 0
x[742] 0
x[743] 1
x[744] 0
x[745] 1
x[746] 1
x[747] 0
x[748] 0
x[749] 1
x[750] 0
x[751] 1
x[752] 1
x[753] 0
x[754] 0
x[755] 1
x[756] 0
x[757] 0
x[758] 1
x[759] 0
x[760] 1
x[761] 0
x[762] 0
x[763] 0
x[764] 0
x[765] 0
x[766] 0
x[767] 0
x[768] 1
x[769] 0
x[770] 1
x[771] 0
x[772] 1
x[773] 1
x[774] 1
x[775] 1
x[776] 0
x[777] 1
x[778] 0
x[779] 1
x[780] 0
x[781] 1
x[782] 1
x[783] 1
x[784] 1
x[785] 1
x[786] 1
x[787] 1
x[788] 1
x[789] 1
x[790] 1
x[791] 1
x[792] 1
x[793] 1
x[794] 0
x[795] 1
x[796] 1
x[797] 1
x[798] 1
x[799] 1
x[800] 0
x[801] 1
x[802] 1
x[803] 1
x[804] 0
x[805] 1
x[806] 0
x[807] 1
x[808] 0
x[809] 1
x[810] 1
x[811] 1
x[812] 1
x[813] 1
x[814] 0
x[815] 0
x[816] 0
x[817] 1
x[818] 0
x[819] 0
x[820] 0
x[821] 1
x[822] 0
x[823] 1
x[824] 0
x[825] 0
x[826] 1
x[827] 1
x[828] 0
x[829] 0
x[830] 1
x[831] 0
x[832] 0
x[833] 0
x[834] 1
x[835] 0
x[836] 0
x[837] 0
x[838] 0
x[839] 1
x[840] 0
x[841] 1
x[842] 1
x[843] 1
x[844] 1
x[845] 1
x[846] 0
x[847] 0
x[848] 0
x[849] 1
x[850] 1
x[851] 0
x[852] 0
x[853] 0
x[854] 1
x[855] 1
x[856] 1
x[857] 1
x[858] 0
x[859] 1
x[860] 0
x[861] 0
x[862] 0
x[863] 0
x[864] 1
x[865] 0
x[866] 1
x[867] 0
x[868] 1
x[869] 0
x[870] 1
x[871] 0
x[872] 0
x[873] 0
x[874] 1
x[875] 1
x[876] 1
x[877] 1
x[878] 1
x[879] 1
x[880] 1
x[881] 0
x[882] 0
x[883] 1
x[884] 1
x[885] 1
x[886] 0
x[887] 0
x[888] 1
x[889] 0
x[890] 1
x[891] 0
x[892] 0
x[893] 1
x[894] 1
x[895] 1
x[896] 1
x[897] 1
x[898] 1
x[899] 1
x[900] 0
x[901] 1
x[902] 1
x[903] 1
x[904] 1
x[905] 0
x[906] 1
x[907] 0
x[908] 1
x[909] 1
x[910] 0
x[911] 0
x[912] 0
x[913] 1
x[914] 0
x[915] 1
x[916] 0
x[917] 0
x[918] 0
x[919] 0
x[920] 0
x[921] 0
x[922] 0
x[923] 1
x[924] 0
x[925] 0
x[926] 1
x[927] 1
x[928] 0
x[929] 1
x[930] 0
x[931] 1
x[932] 0
x[933] 0
x[934] 0
x[935] 0
x[936] 1
x[937] 1
x[938] 1
x[939] 1
x[940] 1
x[941] 0
x[942] 0
x[943] 0
x[944] 1
x[945] 1
x[946] 0
x[947] 1
x[948] 1
x[949] 1
x[950] 1
x[951] 1
x[952] 1
x[953] 0
x[954] 1
x[955] 0
x[956] 1
x[957] 1
x[958] 1
x[959] 0
x[960] 0
x[961] 0
x[962] 1
x[963] 1
x[964] 0
x[965] 0
x[966] 0
x[967] 1
x[968] 0
x[969] 0
x[970] 0
x[971] 1
x[972] 0
x[973] 1
x[974] 0
x[975] 1
x[976] 1
x[977] 0
x[978] 1
x[979] 1
x[980] 1
x[981] 0
x[982] 0
x[983] 1
x[984] 1
x[985] 1
x[986] 1
x[987] 1
x[988] 1
x[989] 1
x[990] 1
x[991] 1
x[992] 0
x[993] 1
x[994] 0
x[995] 1
x[996] 1
x[997] 0
x[998] 1
x[999] 0
